(set-logic QF_S)
(set-option :parse-transducers true)
(set-option :produce-models true)
(define-fun-rec toLower ((x String) (y String)) Bool
   (or (and (= x "") (= y ""))
       (and (not (= x "")) (not (= y ""))
           (= (char.code (str.head y))
               (ite (and (<= 65 (char.code (str.head x)))
                       (<= (char.code (str.head x)) 90))
                   (+ (char.code (str.head x)) 32)
                   (char.code (str.head x))))
           (toLower (str.tail x) (str.tail y))))
)
(declare-fun sym252 () String)
(declare-fun sym1317 () String)
(declare-fun sym122 () String)
(declare-fun sym861 () String)
(declare-fun sym1203 () String)
(declare-fun sym633 () String)
(declare-fun sym975 () String)
(declare-fun sym1089 () String)
(declare-fun sym405 () String)
(declare-fun sym747 () String)
(declare-fun sym519 () String)
(declare-fun L23  () String)
(declare-fun L8  () String)
(declare-fun L10  () String)
(declare-fun L21  () String)
(declare-fun L6  () String)
(declare-fun L3  () String)
(declare-fun L4  () String)
(declare-fun L1  () String)
(declare-fun L2  () String)
(declare-fun L0  () String)
(declare-fun L29  () String)
(assert (toLower sym747  L29 ))
(assert (toLower sym1203  L0 ))
(assert (toLower sym252  L2 ))
(assert (toLower sym1317  L1 ))
(assert (toLower sym1089  L4 ))
(assert (toLower sym122  L3 ))
(assert (toLower sym405  L6 ))
(assert (toLower sym861  L21 ))
(assert (toLower sym519  L10 ))
(assert (toLower sym633  L8 ))
(assert (toLower sym975  L23 ))

(assert (not (= L0 "/restart" )))
(assert (not (= L1 "n" )))
(assert (not (= L2 "/quit" )))
(assert (not (= L3 "elementary" )))
(assert (not (= L4 "y" )))
(assert (not (= L2 "/?" )))
(assert (not (= L6 "/clear" )))
(assert (not (str.contains L0 "/say" )))
(assert (not (str.contains L8 "/say" )))
(assert (not (= L2 "/clear" )))
(assert (not (= L10 "n" )))
(assert (= L3 "high school" ))
(assert (not (= L2 "y" )))
(assert (not (= L8 "/restart" )))
(assert (not (str.contains L4 "/setfont" )))
(assert (not (= L0 "n" )))
(assert (not (= L8 "y" )))
(assert (not (str.contains L4 "/say" )))
(assert (not (= L4 "/?" )))
(assert (not (= L10 "/help" )))
(assert (not (= L3 "middle school" )))
(assert (not (= L21 "/clear" )))
(assert (not (str.contains L2 "/setfont" )))
(assert (not (= L23 "/restart" )))
(assert (not (str.contains L6 "/setsize" )))
(assert (not (str.contains L6 "/say" )))
(assert (not (= L6 "/restart" )))
(assert (not (str.contains L6 "/setfont" )))
(assert (not (str.contains L0 "/setsize" )))
(assert (not (str.contains L29 "/say" )))
(assert (not (= L29 "y" )))
(assert (not (str.contains L23 "/setfont" )))
(assert (not (= L0 "/help" )))
(assert (not (= L21 "/help" )))
(assert (not (str.contains L8 "/setsize" )))
(assert (not (= L23 "/quit" )))
(assert (not (= L4 "/help" )))
(assert (not (= L6 "/?" )))
(assert (not (= L8 "/?" )))
(assert (not (= L2 "/help" )))
(assert (not (= L29 "/quit" )))
(assert (not (str.contains L10 "/setsize" )))
(assert (not (= L2 "/restart" )))
(assert (not (= L10 "y" )))
(assert (not (= L10 "/?" )))
(assert (not (= L8 "/clear" )))
(assert (not (= L0 "/quit" )))
(assert (not (= L1 "/restart" )))
(assert (not (= L21 "n" )))
(assert (not (= L21 "/?" )))
(assert (not (= L6 "/help" )))
(assert (not (str.contains L23 "/setsize" )))
(assert (not (= L6 "y" )))
(assert (not (= L0 "/?" )))
(assert (not (= L29 "/restart" )))
(assert (not (= L4 "n" )))
(assert (not (= L10 "/restart" )))
(assert (not (= L8 "n" )))
(assert (not (str.contains L29 "/setfont" )))
(assert (not (= L29 "/help" )))
(assert (not (= L0 "y" )))
(assert (not (= L4 "/restart" )))
(assert (not (str.contains L21 "/setsize" )))
(assert (not (= L23 "n" )))
(assert (not (= L8 "/quit" )))
(assert (not (str.contains L2 "/setsize" )))
(assert (= L1 "/quit" ))
(assert (not (= L23 "y" )))
(assert (not (= L10 "/clear" )))
(assert (not (= L21 "/quit" )))
(assert (not (= L23 "/help" )))
(assert (not (= L21 "/restart" )))
(assert (not (= L1 "y" )))
(assert (not (str.contains L8 "/setfont" )))
(assert (not (= L21 "y" )))
(assert (not (str.contains L4 "/setsize" )))
(assert (not (= L4 "/quit" )))
(assert (not (= L4 "/clear" )))
(assert (not (= L23 "/?" )))
(assert (not (= L29 "/?" )))
(assert (not (str.contains L23 "/say" )))
(assert (not (= L10 "/quit" )))
(assert (not (str.contains L29 "/setsize" )))
(assert (not (= L6 "n" )))
(assert (not (str.contains L10 "/say" )))
(assert (not (= L2 "n" )))
(assert (not (= L6 "/quit" )))
(assert (not (str.contains L21 "/setfont" )))
(assert (not (str.contains L0 "/setfont" )))
(assert (not (= L8 "/help" )))
(assert (not (= L0 "/clear" )))
(assert (not (= L23 "/clear" )))
(assert (not (= L29 "n" )))
(assert (not (= L29 "/clear" )))
(assert (not (str.contains L21 "/say" )))
(assert (not (str.contains L2 "/say" )))
(assert (not (str.contains L10 "/setfont" )))
(check-sat)
(get-model)
(exit)
